
Gurobi 8.1.1 (linux64, Python) logging started Wed Sep 25 11:02:31 2019

Academic license - for non-commercial use only

Gurobi 8.1.1 (linux64, Python) logging started Wed Sep 25 11:04:08 2019

Academic license - for non-commercial use only

Gurobi 8.1.1 (linux64, Python) logging started Wed Sep 25 11:04:20 2019

Academic license - for non-commercial use only

Gurobi 8.1.1 (linux64, Python) logging started Wed Sep 25 11:04:46 2019

Academic license - for non-commercial use only

Gurobi 8.1.1 (linux64, Python) logging started Wed Sep 25 11:05:28 2019

Academic license - for non-commercial use only

Gurobi 8.1.1 (linux64, Python) logging started Wed Sep 25 11:06:10 2019

Academic license - for non-commercial use only

Gurobi 8.1.1 (linux64, Python) logging started Wed Sep 25 11:36:25 2019

Academic license - for non-commercial use only

Gurobi 8.1.1 (linux64, Python) logging started Wed Sep 25 11:36:56 2019

Academic license - for non-commercial use only

Gurobi 8.1.1 (linux64, Python) logging started Wed Sep 25 11:37:20 2019

Academic license - for non-commercial use only

Gurobi 8.1.1 (linux64, Python) logging started Wed Sep 25 11:37:47 2019

Academic license - for non-commercial use only

Gurobi 8.1.1 (linux64, Python) logging started Wed Sep 25 11:39:03 2019

Academic license - for non-commercial use only

Gurobi 8.1.1 (linux64, Python) logging started Wed Sep 25 11:52:13 2019

Academic license - for non-commercial use only

Gurobi 8.1.1 (linux64, Python) logging started Wed Sep 25 11:55:29 2019

Academic license - for non-commercial use only

Gurobi 8.1.1 (linux64, Python) logging started Wed Sep 25 11:55:49 2019

Academic license - for non-commercial use only

Gurobi 8.1.1 (linux64, Python) logging started Wed Sep 25 11:58:19 2019

Academic license - for non-commercial use only

Gurobi 8.1.1 (linux64, Python) logging started Wed Sep 25 12:01:27 2019

Academic license - for non-commercial use only

Gurobi 8.1.1 (linux64, Python) logging started Wed Sep 25 14:14:30 2019

Academic license - for non-commercial use only

Gurobi 8.1.1 (linux64, Python) logging started Wed Sep 25 14:16:39 2019

Academic license - for non-commercial use only

Gurobi 8.1.1 (linux64, Python) logging started Wed Sep 25 14:16:42 2019

Academic license - for non-commercial use only

Gurobi 8.1.1 (linux64, Python) logging started Wed Sep 25 14:16:44 2019

Academic license - for non-commercial use only

Gurobi 8.1.1 (linux64, Python) logging started Wed Sep 25 14:16:45 2019

Academic license - for non-commercial use only

Gurobi 8.1.1 (linux64, Python) logging started Wed Sep 25 14:16:47 2019

Academic license - for non-commercial use only

Gurobi 8.1.1 (linux64, Python) logging started Wed Sep 25 14:16:48 2019

Academic license - for non-commercial use only

Gurobi 8.1.1 (linux64, Python) logging started Wed Sep 25 14:17:06 2019

Academic license - for non-commercial use only

Gurobi 8.1.1 (linux64, Python) logging started Wed Sep 25 14:17:15 2019

Academic license - for non-commercial use only

Gurobi 8.1.1 (linux64, Python) logging started Wed Sep 25 14:17:17 2019

Academic license - for non-commercial use only

Gurobi 8.1.1 (linux64, Python) logging started Wed Sep 25 14:17:55 2019

Academic license - for non-commercial use only

Gurobi 8.1.1 (linux64, Python) logging started Wed Sep 25 14:18:15 2019

Academic license - for non-commercial use only

Gurobi 8.1.1 (linux64, Python) logging started Wed Sep 25 14:20:18 2019

Academic license - for non-commercial use only

Gurobi 8.1.1 (linux64, Python) logging started Wed Sep 25 14:23:08 2019

Academic license - for non-commercial use only

Gurobi 8.1.1 (linux64, Python) logging started Wed Sep 25 14:24:03 2019

Academic license - for non-commercial use only

Gurobi 8.1.1 (linux64, Python) logging started Wed Sep 25 14:24:06 2019

Academic license - for non-commercial use only

Gurobi 8.1.1 (linux64, Python) logging started Wed Sep 25 14:25:48 2019

Academic license - for non-commercial use only

Gurobi 8.1.1 (linux64, Python) logging started Wed Sep 25 14:26:46 2019

Academic license - for non-commercial use only

Gurobi 8.1.1 (linux64, Python) logging started Wed Sep 25 14:27:31 2019

Academic license - for non-commercial use only

Gurobi 8.1.1 (linux64, Python) logging started Wed Sep 25 14:28:09 2019

Academic license - for non-commercial use only

Gurobi 8.1.1 (linux64, Python) logging started Wed Sep 25 14:28:55 2019

Academic license - for non-commercial use only

Gurobi 8.1.1 (linux64, Python) logging started Thu Sep 26 02:53:25 2019

Academic license - for non-commercial use only

Gurobi 8.1.1 (linux64, Python) logging started Thu Sep 26 02:54:28 2019

Academic license - for non-commercial use only

Gurobi 8.1.1 (linux64, Python) logging started Thu Sep 26 02:55:24 2019

Academic license - for non-commercial use only

Gurobi 8.1.1 (linux64, Python) logging started Thu Sep 26 02:55:37 2019

Academic license - for non-commercial use only

Gurobi 8.1.1 (linux64, Python) logging started Thu Sep 26 11:05:39 2019

Academic license - for non-commercial use only

Gurobi 8.1.1 (linux64, Python) logging started Thu Sep 26 11:08:33 2019

Academic license - for non-commercial use only

Gurobi 8.1.1 (linux64, Python) logging started Thu Sep 26 11:11:20 2019

Academic license - for non-commercial use only

Gurobi 8.1.1 (linux64, Python) logging started Thu Sep 26 11:12:02 2019

Academic license - for non-commercial use only

Gurobi 8.1.1 (linux64, Python) logging started Thu Sep 26 11:12:31 2019

Academic license - for non-commercial use only

Gurobi 8.1.1 (linux64, Python) logging started Thu Sep 26 11:12:40 2019

Academic license - for non-commercial use only

Gurobi 8.1.1 (linux64, Python) logging started Thu Sep 26 15:52:23 2019

Academic license - for non-commercial use only

Gurobi 8.1.1 (linux64, Python) logging started Thu Sep 26 15:53:04 2019

Academic license - for non-commercial use only

Gurobi 8.1.1 (linux64, Python) logging started Thu Sep 26 15:53:22 2019

Academic license - for non-commercial use only

Gurobi 8.1.1 (linux64, Python) logging started Thu Sep 26 15:56:45 2019

Academic license - for non-commercial use only

Gurobi 8.1.1 (linux64, Python) logging started Thu Sep 26 16:04:41 2019

Academic license - for non-commercial use only

Gurobi 8.1.1 (linux64, Python) logging started Thu Sep 26 16:05:35 2019

Academic license - for non-commercial use only

Gurobi 8.1.1 (linux64, Python) logging started Thu Sep 26 18:38:11 2019

Academic license - for non-commercial use only

Gurobi 8.1.1 (linux64, Python) logging started Thu Sep 26 18:38:36 2019

Academic license - for non-commercial use only

Gurobi 8.1.1 (linux64, Python) logging started Thu Sep 26 18:40:25 2019

Academic license - for non-commercial use only

Gurobi 8.1.1 (linux64, Python) logging started Thu Sep 26 18:47:22 2019

Academic license - for non-commercial use only

Gurobi 8.1.1 (linux64, Python) logging started Thu Sep 26 18:48:34 2019

Academic license - for non-commercial use only

Gurobi 8.1.1 (linux64, Python) logging started Thu Sep 26 18:49:14 2019

Academic license - for non-commercial use only

Gurobi 8.1.1 (linux64, Python) logging started Thu Sep 26 18:52:25 2019

Academic license - for non-commercial use only

Gurobi 8.1.1 (linux64, Python) logging started Thu Sep 26 19:28:04 2019

Academic license - for non-commercial use only

Gurobi 8.1.1 (linux64, Python) logging started Thu Sep 26 19:28:57 2019

Academic license - for non-commercial use only

Gurobi 8.1.1 (linux64, Python) logging started Thu Sep 26 19:30:49 2019

Academic license - for non-commercial use only

Gurobi 8.1.1 (linux64, Python) logging started Thu Sep 26 19:31:06 2019

Academic license - for non-commercial use only

Gurobi 8.1.1 (linux64, Python) logging started Thu Sep 26 19:32:06 2019

Academic license - for non-commercial use only

Gurobi 8.1.1 (linux64, Python) logging started Thu Sep 26 19:32:27 2019

Academic license - for non-commercial use only

Gurobi 8.1.1 (linux64, Python) logging started Thu Sep 26 19:32:53 2019

Academic license - for non-commercial use only

Gurobi 8.1.1 (linux64, Python) logging started Thu Sep 26 19:33:06 2019

Academic license - for non-commercial use only

Gurobi 8.1.1 (linux64, Python) logging started Thu Sep 26 19:34:37 2019

Academic license - for non-commercial use only

Gurobi 8.1.1 (linux64, Python) logging started Thu Sep 26 19:36:28 2019

Academic license - for non-commercial use only

Gurobi 8.1.1 (linux64, Python) logging started Thu Sep 26 19:36:36 2019

Academic license - for non-commercial use only

Gurobi 8.1.1 (linux64, Python) logging started Thu Sep 26 19:43:29 2019

Academic license - for non-commercial use only

Gurobi 8.1.1 (linux64, Python) logging started Thu Sep 26 20:03:07 2019

Academic license - for non-commercial use only

Gurobi 8.1.1 (linux64, Python) logging started Thu Sep 26 22:19:05 2019

Academic license - for non-commercial use only

Gurobi 8.1.1 (linux64, Python) logging started Thu Sep 26 22:31:07 2019

Academic license - for non-commercial use only

Gurobi 8.1.1 (linux64, Python) logging started Thu Sep 26 22:32:18 2019

Academic license - for non-commercial use only

Gurobi 8.1.1 (linux64, Python) logging started Thu Sep 26 22:32:35 2019

Academic license - for non-commercial use only

Gurobi 8.1.1 (linux64, Python) logging started Thu Sep 26 22:33:16 2019

Academic license - for non-commercial use only

Gurobi 8.1.1 (linux64, Python) logging started Thu Sep 26 22:35:19 2019

Academic license - for non-commercial use only

Gurobi 8.1.1 (linux64, Python) logging started Thu Sep 26 22:35:31 2019

Academic license - for non-commercial use only

Gurobi 8.1.1 (linux64, Python) logging started Thu Sep 26 22:36:24 2019

Academic license - for non-commercial use only

Gurobi 8.1.1 (linux64, Python) logging started Thu Sep 26 22:36:33 2019

Academic license - for non-commercial use only

Gurobi 8.1.1 (linux64, Python) logging started Thu Sep 26 22:37:53 2019

Academic license - for non-commercial use only
